(set-info :smt-lib-version 2.6)
(set-logic UF)
(set-info :source |Benchmarks from the paper: "Extending Sledgehammer with SMT Solvers" by Jasmin Blanchette, Sascha Bohme, and Lawrence C. Paulson, CADE 2011.  Translated to SMT2 by Andrew Reynolds and Morgan Deters.|)
(set-info :category "industrial")
(set-info :status sat)
(declare-sort S1 0)
(declare-sort S2 0)
(declare-sort S3 0)
(declare-sort S4 0)
(declare-sort S5 0)
(declare-sort S6 0)
(declare-sort S7 0)
(declare-sort S8 0)
(declare-sort S9 0)
(declare-sort S10 0)
(declare-sort S11 0)
(declare-sort S12 0)
(declare-sort S13 0)
(declare-sort S14 0)
(declare-sort S15 0)
(declare-fun f1 () S1)
(declare-fun f2 () S1)
(declare-fun f3 (S3 S2) S4)
(declare-fun f4 () S3)
(declare-fun f5 (S5 S6) S1)
(declare-fun f6 (S6) S5)
(declare-fun f7 (S7 S2) S6)
(declare-fun f8 () S7)
(declare-fun f9 () S6)
(declare-fun f10 () S4)
(declare-fun f11 () S4)
(declare-fun f12 (S6) S3)
(declare-fun f13 (S4) S3)
(declare-fun f14 () S3)
(declare-fun f15 (S8 S3) S9)
(declare-fun f16 () S8)
(declare-fun f17 () S9)
(declare-fun f18 (S10 S4) S1)
(declare-fun f19 (S11 S11) S10)
(declare-fun f20 () S11)
(declare-fun f21 () S11)
(declare-fun f22 (S12 S3) S4)
(declare-fun f23 () S12)
(declare-fun f24 (S4 S9) S1)
(declare-fun f25 (S12) S1)
(declare-fun f26 (S12) S1)
(declare-fun f27 (S3 S13) S1)
(declare-fun f28 () S13)
(declare-fun f29 (S12 S14) S1)
(declare-fun f30 (S13 S8) S14)
(declare-fun f31 (S15 S6) S5)
(assert (not (= f1 f2)))
(assert (forall ((?v0 S2)) (= (f3 f4 ?v0) (ite (= (f5 (f6 (f7 f8 ?v0)) f9) f1) f10 f11))))
(assert (forall ((?v0 S6) (?v1 S2)) (= (f3 (f12 ?v0) ?v1) (ite (= (f5 (f6 (f7 f8 ?v1)) ?v0) f1) f10 f11))))
(assert (forall ((?v0 S4) (?v1 S2)) (= (f3 (f13 ?v0) ?v1) ?v0)))
(assert (forall ((?v0 S2)) (= (f3 f14 ?v0) f11)))
(assert (forall ((?v0 S3)) (= (f15 f16 ?v0) f17)))
(assert (not (not (= (f18 (f19 f20 f21) (f22 f23 f4)) f1))))
(assert (= (f24 (f22 f23 f14) f17) f1))
(assert (= (f25 f23) f1))
(assert (not (= (f18 (f19 f20 f21) f11) f1)))
(assert (= (f24 f11 f17) f1))
(assert (= (f24 f11 f17) f1))
(assert (not (= f20 f21)))
(assert (= (f25 f23) f1))
(assert (= (f24 f11 f17) f1))
(assert (= (f26 f23) f1))
(assert (= (f24 f10 f17) f1))
(assert (not (= f20 f21)))
(assert (= (f24 (f22 f23 f14) f17) f1))
(assert (not (= (f18 (f19 f20 f21) f11) f1)))
(assert (= (f18 (f19 f21 f20) f11) f1))
(assert (= (f18 (f19 f20 f21) f10) f1))
(assert (not (= (f18 (f19 f21 f20) f10) f1)))
(assert (forall ((?v0 S6)) (= (f24 (f22 f23 (f12 ?v0)) f17) f1)))
(assert (=> (forall ((?v0 S4)) (=> (= (f18 (f19 f20 f21) ?v0) f1) (=> (= (f24 ?v0 f17) f1) false))) false))
(assert (=> (forall ((?v0 S4)) (=> (= (f18 (f19 f21 f20) ?v0) f1) (=> (= (f24 ?v0 f17) f1) false))) false))
(assert (forall ((?v0 S6)) (= (f27 (f12 ?v0) f28) f1)))
(assert (forall ((?v0 S6)) (=> (= (f5 (f6 ?v0) f9) f1) false)))
(assert (forall ((?v0 S11) (?v1 S11) (?v2 S11) (?v3 S11) (?v4 S3) (?v5 S3)) (=> (not (= ?v0 ?v1)) (=> (not (= ?v2 ?v3)) (=> (not (= ?v0 ?v3)) (=> (not (= ?v1 ?v2)) (=> (= (f27 ?v4 f28) f1) (=> (= (f27 ?v5 f28) f1) (=> (forall ((?v6 S2)) (= (= (f18 (f19 ?v0 ?v1) (f3 ?v4 ?v6)) f1) (= (f18 (f19 ?v2 ?v3) (f3 ?v5 ?v6)) f1))) (= (= (f18 (f19 ?v0 ?v1) (f22 f23 ?v4)) f1) (= (f18 (f19 ?v2 ?v3) (f22 f23 ?v5)) f1)))))))))))
(assert (forall ((?v0 S11) (?v1 S11) (?v2 S11) (?v3 S11) (?v4 S3) (?v5 S3)) (=> (not (= ?v0 ?v1)) (=> (not (= ?v2 ?v3)) (=> (not (= ?v0 ?v3)) (=> (not (= ?v1 ?v2)) (=> (= (f27 ?v4 f28) f1) (=> (= (f27 ?v5 f28) f1) (=> (forall ((?v6 S2)) (= (= (f18 (f19 ?v0 ?v1) (f3 ?v4 ?v6)) f1) (= (f18 (f19 ?v2 ?v3) (f3 ?v5 ?v6)) f1))) (=> (= (f18 (f19 ?v0 ?v1) (f22 f23 ?v4)) f1) (= (f18 (f19 ?v2 ?v3) (f22 f23 ?v5)) f1)))))))))))
(assert (forall ((?v0 S11) (?v1 S11) (?v2 S11) (?v3 S3) (?v4 S3)) (=> (not (= ?v0 ?v1)) (=> (not (= ?v1 ?v2)) (=> (not (= ?v0 ?v2)) (=> (= (f27 ?v3 f28) f1) (=> (= (f27 ?v4 f28) f1) (=> (forall ((?v5 S2)) (= (= (f18 (f19 ?v0 ?v1) (f3 ?v3 ?v5)) f1) (= (f18 (f19 ?v1 ?v2) (f3 ?v4 ?v5)) f1))) (= (= (f18 (f19 ?v0 ?v1) (f22 f23 ?v3)) f1) (= (f18 (f19 ?v1 ?v2) (f22 f23 ?v4)) f1))))))))))
(assert (forall ((?v0 S11) (?v1 S11) (?v2 S11) (?v3 S11) (?v4 S3) (?v5 S3)) (=> (not (= ?v0 ?v1)) (=> (not (= ?v2 ?v3)) (=> (= (f27 ?v4 f28) f1) (=> (= (f27 ?v5 f28) f1) (=> (forall ((?v6 S2)) (= (= (f18 (f19 ?v0 ?v1) (f3 ?v4 ?v6)) f1) (= (f18 (f19 ?v2 ?v3) (f3 ?v5 ?v6)) f1))) (= (= (f18 (f19 ?v0 ?v1) (f22 f23 ?v4)) f1) (= (f18 (f19 ?v2 ?v3) (f22 f23 ?v5)) f1)))))))))
(assert (forall ((?v0 S11) (?v1 S11) (?v2 S3) (?v3 S3)) (=> (not (= ?v0 ?v1)) (=> (= (f27 ?v2 f28) f1) (=> (= (f27 ?v3 f28) f1) (=> (forall ((?v4 S2)) (= (= (f18 (f19 ?v0 ?v1) (f3 ?v2 ?v4)) f1) (= (f18 (f19 ?v1 ?v0) (f3 ?v3 ?v4)) f1))) (= (= (f18 (f19 ?v0 ?v1) (f22 f23 ?v2)) f1) (= (f18 (f19 ?v1 ?v0) (f22 f23 ?v3)) f1))))))))
(assert (forall ((?v0 S4) (?v1 S11) (?v2 S11)) (=> (= (f24 ?v0 f17) f1) (=> (not (= ?v1 ?v2)) (= (not (= (f18 (f19 ?v1 ?v2) ?v0) f1)) (= (f18 (f19 ?v2 ?v1) ?v0) f1))))))
(assert (forall ((?v0 S4) (?v1 S11) (?v2 S11)) (=> (= (f24 ?v0 f17) f1) (=> (= (f18 (f19 ?v1 ?v2) ?v0) f1) (=> (= (f18 (f19 ?v2 ?v1) ?v0) f1) false)))))
(assert (forall ((?v0 S6)) (not (= (f5 (f6 ?v0) f9) f1))))
(assert (forall ((?v0 S6)) (= (not (= ?v0 f9)) (= (f5 (f6 f9) ?v0) f1))))
(assert (forall ((?v0 S6)) (= (= (f5 (f6 ?v0) f9) f1) false)))
(assert (= (f29 f23 (f30 f28 f16)) f1))
(assert (forall ((?v0 S4)) (=> (= (f24 ?v0 f17) f1) (= (f27 (f13 ?v0) f28) f1))))
(assert (forall ((?v0 S6) (?v1 S6) (?v2 S15)) (let ((?v_0 (= (f5 (f31 ?v2 ?v1) ?v0) f1))) (=> (=> (= (f5 (f6 ?v0) ?v1) f1) ?v_0) (=> (=> (= ?v0 ?v1) ?v_0) (=> (=> (= (f5 (f6 ?v1) ?v0) f1) ?v_0) ?v_0))))))
(assert (forall ((?v0 S6) (?v1 S6)) (=> (= (f5 (f6 ?v0) ?v1) f1) (not (= ?v0 ?v1)))))
(assert (forall ((?v0 S6) (?v1 S6)) (=> (= (f5 (f6 ?v0) ?v1) f1) (not (= ?v1 ?v0)))))
(assert (forall ((?v0 S6)) (=> (= (f5 (f6 ?v0) ?v0) f1) false)))
(assert (forall ((?v0 S6) (?v1 S6)) (=> (not (= ?v0 ?v1)) (=> (=> (= (f5 (f6 ?v0) ?v1) f1) false) (=> (=> (= (f5 (f6 ?v1) ?v0) f1) false) false)))))
(check-sat)
(exit)
